52
0 2 0
1 4 2
2 5 2
3 8 4
4 8 6
5 9 3
6 9 6
7 10 0
8 10 7
9 11 3
10 11 5
11 13 3
12 13 4
13 13 10
14 14 0
15 14 3
16 14 4
17 14 11
18 14 12
19 15 9
20 15 11
21 16 0
22 16 7
23 17 0
24 17 2
25 17 3
26 17 10
27 17 12
28 17 15
29 18 0
30 18 12
31 18 13
32 18 16
33 19 7
34 19 8
35 19 15
36 20 1
37 20 2
38 20 12
39 20 15
40 21 7
41 21 13
42 22 7
43 22 12
44 22 13
45 23 6
46 23 7
47 23 22
48 24 5
49 24 7
50 24 12
51 24 17
